
Gurobi 7.5.2 (linux64) logging started Sat Jun 23 16:25:58 2018

Changed value of parameter LogFile to result/ilp/simNo_1-n_100-m_40-s_7-minVAF_0.05-cov_2000-k_2-fn_0.15-fp_0.0001-na_0.15.ILP.gurobiSolverLog
   Prev: gurobi.log  Default: 
Changed value of parameter TimeLimit to 86400.0
   Prev: 1e+100  Min: 0.0  Max: 1e+100  Default: 1e+100
Optimize a model with 1265601 rows, 330440 columns and 3489120 nonzeros
Variable types: 0 continuous, 330440 integer (330440 binary)
Coefficient statistics:
  Matrix range     [5e-04, 4e+00]
  Objective range  [1e+00, 2e+01]
  Bounds range     [1e+00, 1e+00]
  RHS range        [5e-02, 2e+00]
Found heuristic solution: objective -14702.55223
Presolve removed 397321 rows and 227184 columns (presolve time = 6s) ...
Presolve removed 397553 rows and 227184 columns (presolve time = 10s) ...
Presolve removed 397553 rows and 227184 columns (presolve time = 15s) ...
Presolve removed 397553 rows and 227184 columns (presolve time = 20s) ...
Presolve removed 397553 rows and 227184 columns (presolve time = 27s) ...
Presolve removed 397553 rows and 227184 columns
Presolve time: 28.54s
Presolved: 868048 rows, 103256 columns, 2415811 nonzeros
Variable types: 0 continuous, 103256 integer (103256 binary)
Presolved: 103256 rows, 971304 columns, 2519067 nonzeros

Presolve removed 103256 rows and 971304 columns

Root simplex log...

Iteration    Objective       Primal Inf.    Dual Inf.      Time
       0    3.3166665e+01   0.000000e+00   9.676900e+04     37s
   13651   -2.2456772e+02   0.000000e+00   9.758064e+04     40s
   29398   -2.8938878e+02   0.000000e+00   3.696063e+05     45s
   44059   -3.1796064e+02   0.000000e+00   2.273761e+04     50s
   55462   -3.3857440e+02   0.000000e+00   9.665000e+02     55s
   56427   -3.3870314e+02   0.000000e+00   0.000000e+00     56s
   56427   -3.3870314e+02   0.000000e+00   0.000000e+00     61s

Root relaxation: objective -3.387031e+02, 56427 iterations, 29.54 seconds
Total elapsed time = 107.68s
Total elapsed time = 126.07s
Total elapsed time = 138.84s

    Nodes    |    Current Node    |     Objective Bounds      |     Work
 Expl Unexpl |  Obj  Depth IntInf | Incumbent    BestBd   Gap | It/Node Time

     0     0 -338.70314    0  468 -14702.552 -338.70314  97.7%     -  147s
H    0     0                    -364.5960263 -338.70314  7.10%     -  158s
     0     0 -344.23235    0 1664 -364.59603 -344.23235  5.59%     -  293s
     0     0 -344.99785    0 1656 -364.59603 -344.99785  5.38%     -  357s
     0     0 -349.61474    0 1668 -364.59603 -349.61474  4.11%     -  394s
     0     0 -349.72820    0 1690 -364.59603 -349.72820  4.08%     -  427s
     0     0 -349.73550    0 1669 -364.59603 -349.73550  4.08%     -  435s
     0     0 -349.73822    0 1692 -364.59603 -349.73822  4.08%     -  440s
     0     0 -351.61547    0  514 -364.59603 -351.61547  3.56%     -  468s
     0     0 -351.61547    0  503 -364.59603 -351.61547  3.56%     -  482s
     0     0 -352.81415    0  474 -364.59603 -352.81415  3.23%     -  501s
     0     0 -353.03752    0  487 -364.59603 -353.03752  3.17%     -  518s
     0     0 -353.03752    0  491 -364.59603 -353.03752  3.17%     -  526s
     0     0 -354.50762    0 1688 -364.59603 -354.50762  2.77%     -  585s
     0     0 -354.50762    0 1683 -364.59603 -354.50762  2.77%     -  620s
     0     0 -354.50762    0 1664 -364.59603 -354.50762  2.77%     -  643s
     0     0 -355.02182    0 1670 -364.59603 -355.02182  2.63%     -  686s
     0     0 -355.02357    0 1671 -364.59603 -355.02357  2.63%     -  697s
     0     0 -355.02357    0 1672 -364.59603 -355.02357  2.63%     -  704s
     0     0 -356.26170    0 1606 -364.59603 -356.26170  2.29%     -  803s
     0     0 -356.91501    0 1607 -364.59603 -356.91501  2.11%     -  839s
     0     0 -356.97474    0 1611 -364.59603 -356.97474  2.09%     -  849s
     0     0 -356.97474    0 1611 -364.59603 -356.97474  2.09%     -  856s
     0     0 -357.26847    0 1613 -364.59603 -357.26847  2.01%     -  877s
     0     0 -357.96962    0 1602 -364.59603 -357.96962  1.82%     -  913s
     0     0 -357.96962    0 1612 -364.59603 -357.96962  1.82%     -  921s
     0     0 -358.79174    0 1622 -364.59603 -358.79174  1.59%     -  944s
     0     0 -358.96569    0 1626 -364.59603 -358.96569  1.54%     -  970s
     0     0 -358.96569    0 1625 -364.59603 -358.96569  1.54%     -  977s
     0     0 -359.63138    0 1624 -364.59603 -359.63138  1.36%     - 1000s
     0     0 -359.79850    0 1616 -364.59603 -359.79850  1.32%     - 1027s
     0     0 -359.90070    0 1609 -364.59603 -359.90070  1.29%     - 1039s
     0     0 -359.96193    0 1629 -364.59603 -359.96193  1.27%     - 1047s
     0     0 -359.97122    0 1632 -364.59603 -359.97122  1.27%     - 1055s
     0     0 -359.97363    0 1635 -364.59603 -359.97363  1.27%     - 1061s
     0     0 -359.97363    0 1638 -364.59603 -359.97363  1.27%     - 1069s
     0     0 -360.61702    0 1638 -364.59603 -360.61702  1.09%     - 1087s
     0     0 -360.74997    0 1626 -364.59603 -360.74997  1.05%     - 1112s
     0     0 -360.74997    0 1625 -364.59603 -360.74997  1.05%     - 1120s
     0     0 -360.74997    0 1631 -364.59603 -360.74997  1.05%     - 1141s
     0     0 -360.75681    0 1630 -364.59603 -360.75681  1.05%     - 1158s
     0     0 -360.75681    0 1639 -364.59603 -360.75681  1.05%     - 1167s
     0     0 -360.93015    0 1570 -364.59603 -360.93015  1.01%     - 1191s
     0     0 -360.94678    0 1591 -364.59603 -360.94678  1.00%     - 1206s
     0     0 -361.03137    0 1591 -364.59603 -361.03137  0.98%     - 1215s
     0     0 -361.06248    0 1613 -364.59603 -361.06248  0.97%     - 1224s
     0     0 -361.06314    0 1615 -364.59603 -361.06314  0.97%     - 1232s
     0     0 -361.18982    0 1614 -364.59603 -361.18982  0.93%     - 1256s
     0     0 -361.18982    0 1614 -364.59603 -361.18982  0.93%     - 1269s
     0     0 -361.18982    0 1609 -364.59603 -361.18982  0.93%     - 1293s
     0     0 -361.18982    0 1613 -364.59603 -361.18982  0.93%     - 1306s
     0     0 -361.19811    0 1592 -364.59603 -361.19811  0.93%     - 1371s
     0     0 -361.26088    0 1609 -364.59603 -361.26088  0.91%     - 1386s
     0     0 -361.26709    0 1611 -364.59603 -361.26709  0.91%     - 1395s
     0     0 -361.26709    0 1611 -364.59603 -361.26709  0.91%     - 1403s
     0     0 -361.41569    0 1604 -364.59603 -361.41569  0.87%     - 1440s
     0     0 -361.43782    0 1601 -364.59603 -361.43782  0.87%     - 1454s
     0     0 -361.46485    0 1604 -364.59603 -361.46485  0.86%     - 1462s
     0     0 -361.46485    0 1606 -364.59603 -361.46485  0.86%     - 1469s
     0     0 -361.52793    0 1609 -364.59603 -361.52793  0.84%     - 1488s
     0     0 -361.56417    0 1610 -364.59603 -361.56417  0.83%     - 1499s
     0     0 -361.56417    0 1612 -364.59603 -361.56417  0.83%     - 1507s
     0     0 -361.78443    0 1608 -364.59603 -361.78443  0.77%     - 1525s
     0     0 -361.86742    0 1577 -364.59603 -361.86742  0.75%     - 1540s
     0     0 -361.94393    0 1601 -364.59603 -361.94393  0.73%     - 1551s
     0     0 -361.97381    0 1591 -364.59603 -361.97381  0.72%     - 1559s
     0     0 -361.98919    0 1605 -364.59603 -361.98919  0.71%     - 1567s
     0     0 -361.98919    0 1605 -364.59603 -361.98919  0.71%     - 1576s
     0     0 -361.98919    0 1607 -364.59603 -361.98919  0.71%     - 1596s
     0     0 -361.99191    0 1607 -364.59603 -361.99191  0.71%     - 1609s
     0     0 -361.99191    0 1608 -364.59603 -361.99191  0.71%     - 1617s
     0     0 -361.99654    0 1608 -364.59603 -361.99654  0.71%     - 1634s
     0     0 -361.99960    0 1608 -364.59603 -361.99960  0.71%     - 1645s
     0     0 -362.00116    0 1610 -364.59603 -362.00116  0.71%     - 1654s
     0     0 -362.01894    0 1599 -364.59603 -362.01894  0.71%     - 1704s
     0     0 -362.01894    0 1599 -364.59603 -362.01894  0.71%     - 1727s
     0     2 -362.01991    0 1599 -364.59603 -362.01991  0.71%     - 1813s
     2     4 -362.61399    2  114 -364.59603 -362.01991  0.71%   202 1815s
     7     3 -362.39612    1 1611 -364.59603 -362.39612  0.60%  99.3 1821s
     8     4 -363.37406    2  156 -364.59603 -362.42072  0.60%   167 1827s
    11     5 -364.22979    4  131 -364.59603 -362.42072  0.60%   131 1830s
    17     1     cutoff    2      -364.59603 -362.60930  0.54%   106 1835s

Cutting planes:
  Gomory: 4
  Zero half: 97

Explored 21 nodes (103055 simplex iterations) in 1839.84 seconds
Thread count was 1 (of 80 available processors)

Solution count 2: -364.596 -14702.6 

Optimal solution found (tolerance 1.00e-04)
Best objective -3.645960263282e+02, best bound -3.645960263282e+02, gap 0.0000%
